benchmarks_CP/INST_36x36/20/inst36x36_20_29.dzn
S=6;
start=[|
-1,	25,	-1,	-1,	1,	-1,	-1,	-1,	-1,	-1,	-1,	20,	-1,	-1,	-1,	2,	-1,	-1,	-1,	-1,	23,	12,	-1,	-1,	-1,	-1,	-1,	32,	-1,	-1,	7,	31,	-1,	-1,	-1,	-1|
34,	-1,	-1,	27,	-1,	-1,	2,	-1,	-1,	-1,	-1,	-1,	-1,	11,	-1,	-1,	-1,	-1,	-1,	-1,	5,	-1,	-1,	-1,	-1,	-1,	-1,	7,	-1,	-1,	22,	-1,	-1,	30,	-1,	-1|
-1,	10,	-1,	-1,	-1,	-1,	-1,	-1,	-1,	6,	-1,	-1,	18,	-1,	-1,	-1,	26,	-1,	-1,	8,	-1,	-1,	-1,	-1,	-1,	-1,	-1,	28,	-1,	-1,	36,	27,	-1,	-1,	-1,	-1|
-1,	-1,	23,	-1,	35,	-1,	-1,	-1,	-1,	-1,	-1,	-1,	-1,	32,	-1,	30,	-1,	3,	26,	28,	-1,	7,	17,	-1,	-1,	-1,	-1,	-1,	24,	-1,	25,	-1,	-1,	-1,	-1,	-1|
28,	-1,	-1,	-1,	-1,	24,	-1,	-1,	-1,	-1,	-1,	-1,	20,	23,	-1,	-1,	-1,	-1,	-1,	36,	-1,	14,	-1,	18,	26,	-1,	-1,	-1,	-1,	-1,	-1,	33,	-1,	-1,	-1,	-1|
-1,	-1,	-1,	-1,	31,	-1,	-1,	-1,	-1,	11,	33,	-1,	25,	-1,	-1,	16,	-1,	-1,	-1,	-1,	-1,	-1,	-1,	4,	-1,	-1,	-1,	-1,	-1,	-1,	-1,	-1,	12,	-1,	-1,	-1|
-1,	-1,	-1,	-1,	-1,	-1,	24,	-1,	9,	-1,	-1,	-1,	-1,	18,	-1,	-1,	36,	-1,	-1,	-1,	-1,	-1,	-1,	5,	32,	-1,	-1,	-1,	31,	-1,	-1,	-1,	-1,	-1,	-1,	-1|
-1,	-1,	-1,	-1,	-1,	-1,	-1,	21,	-1,	-1,	-1,	-1,	8,	-1,	-1,	-1,	-1,	-1,	-1,	-1,	19,	-1,	-1,	-1,	-1,	-1,	-1,	-1,	-1,	4,	-1,	-1,	-1,	-1,	-1,	10|
-1,	-1,	-1,	-1,	22,	-1,	-1,	32,	-1,	-1,	-1,	-1,	-1,	-1,	-1,	-1,	-1,	-1,	18,	-1,	-1,	-1,	-1,	-1,	36,	-1,	-1,	-1,	-1,	-1,	-1,	-1,	33,	-1,	-1,	31|
-1,	-1,	15,	33,	-1,	-1,	30,	29,	-1,	35,	-1,	-1,	-1,	-1,	-1,	1,	-1,	-1,	13,	-1,	-1,	-1,	-1,	-1,	-1,	-1,	22,	-1,	34,	-1,	-1,	-1,	-1,	-1,	14,	36|
-1,	36,	-1,	-1,	18,	16,	-1,	2,	-1,	-1,	-1,	-1,	-1,	-1,	-1,	-1,	24,	-1,	-1,	-1,	-1,	-1,	12,	-1,	10,	-1,	-1,	-1,	-1,	-1,	-1,	-1,	-1,	-1,	-1,	-1|
-1,	-1,	5,	-1,	34,	-1,	-1,	-1,	-1,	-1,	16,	-1,	-1,	-1,	-1,	35,	-1,	-1,	23,	-1,	-1,	4,	-1,	-1,	-1,	-1,	3,	-1,	-1,	-1,	-1,	-1,	-1,	-1,	-1,	21|
-1,	9,	1,	-1,	-1,	-1,	-1,	-1,	-1,	10,	-1,	-1,	-1,	-1,	-1,	-1,	16,	-1,	-1,	-1,	-1,	-1,	-1,	-1,	-1,	-1,	32,	-1,	-1,	26,	-1,	-1,	-1,	11,	24,	-1|
-1,	-1,	-1,	-1,	-1,	-1,	-1,	-1,	-1,	32,	-1,	31,	-1,	-1,	-1,	8,	-1,	-1,	-1,	-1,	-1,	-1,	-1,	-1,	-1,	-1,	-1,	-1,	-1,	-1,	-1,	10,	-1,	-1,	-1,	14|
15,	-1,	-1,	-1,	16,	-1,	-1,	33,	21,	-1,	-1,	-1,	-1,	-1,	-1,	-1,	31,	-1,	20,	-1,	2,	-1,	11,	3,	-1,	-1,	-1,	-1,	-1,	22,	-1,	17,	-1,	-1,	-1,	-1|
-1,	-1,	6,	-1,	-1,	-1,	-1,	-1,	-1,	-1,	-1,	-1,	-1,	-1,	-1,	-1,	35,	-1,	15,	1,	-1,	-1,	-1,	-1,	-1,	-1,	-1,	-1,	8,	-1,	21,	-1,	-1,	-1,	-1,	-1|
-1,	12,	25,	-1,	-1,	-1,	-1,	-1,	-1,	2,	-1,	-1,	-1,	17,	-1,	6,	-1,	-1,	-1,	-1,	-1,	-1,	23,	-1,	-1,	4,	21,	-1,	-1,	-1,	-1,	-1,	-1,	20,	-1,	30|
-1,	-1,	-1,	-1,	7,	-1,	-1,	-1,	-1,	-1,	-1,	-1,	-1,	-1,	20,	29,	-1,	-1,	-1,	-1,	-1,	-1,	-1,	-1,	-1,	23,	13,	-1,	-1,	-1,	-1,	22,	-1,	-1,	-1,	12|
-1,	-1,	-1,	-1,	17,	-1,	-1,	-1,	-1,	-1,	-1,	27,	-1,	-1,	-1,	-1,	18,	-1,	-1,	-1,	4,	-1,	-1,	7,	-1,	-1,	-1,	-1,	-1,	-1,	-1,	-1,	-1,	-1,	-1,	-1|
-1,	-1,	-1,	-1,	3,	-1,	-1,	8,	-1,	-1,	-1,	-1,	-1,	-1,	-1,	-1,	-1,	-1,	35,	-1,	-1,	-1,	-1,	-1,	-1,	-1,	-1,	-1,	-1,	-1,	28,	-1,	-1,	10,	-1,	-1|
-1,	4,	-1,	-1,	-1,	33,	-1,	-1,	-1,	-1,	26,	-1,	-1,	-1,	-1,	-1,	-1,	-1,	25,	-1,	-1,	-1,	-1,	23,	29,	-1,	-1,	-1,	-1,	-1,	18,	-1,	-1,	-1,	-1,	-1|
-1,	35,	-1,	-1,	-1,	-1,	-1,	20,	-1,	-1,	-1,	-1,	-1,	7,	-1,	-1,	1,	-1,	-1,	-1,	-1,	-1,	-1,	33,	-1,	-1,	5,	-1,	-1,	-1,	-1,	-1,	8,	-1,	-1,	-1|
-1,	-1,	24,	-1,	14,	-1,	9,	-1,	18,	7,	23,	34,	-1,	-1,	-1,	-1,	-1,	-1,	28,	2,	-1,	-1,	31,	-1,	-1,	-1,	-1,	-1,	-1,	-1,	-1,	-1,	21,	-1,	-1,	-1|
-1,	30,	-1,	-1,	-1,	7,	-1,	-1,	-1,	-1,	-1,	-1,	-1,	-1,	-1,	-1,	-1,	-1,	22,	18,	13,	11,	26,	-1,	-1,	-1,	-1,	-1,	20,	19,	-1,	-1,	-1,	-1,	-1,	-1|
-1,	-1,	-1,	23,	-1,	-1,	-1,	-1,	-1,	-1,	21,	-1,	16,	-1,	-1,	-1,	-1,	4,	-1,	25,	-1,	-1,	-1,	-1,	-1,	5,	26,	-1,	-1,	-1,	-1,	-1,	-1,	-1,	-1,	15|
-1,	-1,	-1,	-1,	-1,	-1,	-1,	-1,	13,	-1,	-1,	-1,	9,	8,	-1,	-1,	-1,	-1,	-1,	16,	26,	-1,	-1,	-1,	-1,	-1,	-1,	-1,	-1,	-1,	-1,	-1,	-1,	23,	-1,	-1|
-1,	-1,	-1,	6,	-1,	-1,	-1,	-1,	-1,	-1,	24,	-1,	-1,	-1,	-1,	34,	-1,	-1,	-1,	-1,	-1,	-1,	32,	-1,	-1,	-1,	-1,	-1,	-1,	8,	-1,	-1,	7,	16,	-1,	-1|
-1,	-1,	-1,	-1,	-1,	-1,	-1,	-1,	-1,	-1,	2,	-1,	-1,	-1,	-1,	-1,	5,	-1,	-1,	-1,	17,	-1,	-1,	-1,	4,	-1,	-1,	-1,	-1,	-1,	-1,	-1,	-1,	-1,	-1,	-1|
-1,	34,	36,	-1,	13,	-1,	-1,	-1,	-1,	-1,	9,	15,	-1,	-1,	-1,	-1,	-1,	14,	-1,	-1,	-1,	22,	-1,	-1,	-1,	-1,	1,	31,	-1,	-1,	-1,	-1,	-1,	-1,	-1,	-1|
-1,	-1,	22,	-1,	-1,	-1,	-1,	-1,	-1,	-1,	-1,	-1,	36,	-1,	-1,	-1,	-1,	6,	5,	-1,	-1,	-1,	-1,	-1,	-1,	-1,	-1,	-1,	-1,	-1,	-1,	-1,	-1,	31,	-1,	2|
-1,	-1,	-1,	-1,	-1,	-1,	-1,	-1,	-1,	-1,	-1,	-1,	-1,	20,	6,	-1,	-1,	-1,	32,	-1,	-1,	-1,	-1,	25,	5,	8,	-1,	-1,	-1,	-1,	-1,	-1,	15,	2,	-1,	-1|
1,	-1,	-1,	-1,	-1,	-1,	-1,	-1,	-1,	-1,	14,	-1,	-1,	-1,	-1,	-1,	-1,	-1,	-1,	-1,	-1,	-1,	-1,	-1,	-1,	-1,	-1,	-1,	-1,	-1,	23,	-1,	25,	-1,	-1,	-1|
-1,	-1,	-1,	-1,	-1,	-1,	-1,	13,	-1,	15,	-1,	-1,	-1,	-1,	-1,	-1,	25,	18,	-1,	-1,	-1,	-1,	-1,	-1,	-1,	-1,	-1,	-1,	-1,	-1,	-1,	-1,	-1,	-1,	16,	-1|
-1,	-1,	-1,	-1,	-1,	-1,	-1,	-1,	-1,	33,	-1,	-1,	-1,	-1,	-1,	-1,	-1,	-1,	-1,	-1,	-1,	-1,	-1,	-1,	31,	-1,	-1,	-1,	4,	9,	-1,	-1,	-1,	-1,	-1,	-1|
14,	-1,	17,	-1,	-1,	31,	-1,	-1,	-1,	-1,	-1,	-1,	-1,	-1,	-1,	-1,	-1,	5,	-1,	-1,	-1,	-1,	-1,	-1,	-1,	-1,	-1,	-1,	-1,	3,	10,	-1,	-1,	-1,	-1,	-1|
-1,	-1,	-1,	-1,	-1,	-1,	-1,	-1,	-1,	-1,	-1,	-1,	-1,	-1,	9,	-1,	-1,	-1,	36,	-1,	3,	-1,	-1,	-1,	-1,	-1,	-1,	-1,	-1,	6,	-1,	-1,	-1,	35,	-1,	-1|];
